data;

param n := 28;
param s := 0;
param t := 27;

param : E :   c :=
0  1	1
1  2	1
1  3	1
2  1	1
3  4	1
3  27	1
4  5	1
4  9	1
5  6	1
5  7	1
6  8	1
7  8	1
8  4	1
9  10	1
9  18	1
10 11	1
11 10	1
11 12	1
12 13	1
12 23	1
13 14	1
13 15	1
13 16	1
14 17	1
15 17	1
16 17	1
17 12	1
18 19	1
18 20	1
18 21	1
18 22	1
19 22	1
20 22	1
21 22	1
22 23	1
23 24	1
23 26	1
24 25	1
24 26	1
25 24	1
26 27	1
;

end;
